% demand
num_movements = 27;
loading_factor = [1400, 950, 1550, 1800, 2000, 1950, 1350, 1250, 1700, 1050, 1550, 2000, 1200, 1300, 1400, 2000, 1550, 1800, 1950, 1950, 1250, 1100, 950, 1500, 1300, 1000, 1750];
pickup_time = [0, 0, 0, 0, 0, 0, 0, 2, 2, 2, 2, 2, 2, 2, 4, 5, 5, 5, 5, 5, 6, 6, 6, 6, 6, 6, 6];
delivery_time = [2, 5, 2, 1, 2, 1, 1, 5, 5, 3, 3, 3, 5, 3, 5, 6, 6, 6, 6, 6, 7, 7, 7, 7, 7, 7, 7];

% transporter definition
total_capacity = 11000;
num_decks = 4;
capacity = [3000, 3000, 1000, 4000];

% ways out of decks
num_ways_out = 2;
paths_out = array3d(decks, ways_out, decks, [
% ways out of deck d1
2, 4, 0, 0, 3, 4, 0, 0, 

% ways out of deck d2
4, 0, 0, 0, 0, 0, 0, 0,	

% ways out of deck d3
4, 0, 0, 0, 0, 0, 0, 0,	

% ways out of deck d4
0, 0, 0, 0,	0, 0, 0, 0,	

]);

